(set-option :produce-models true); benchmark generated from python API
(set-info :status unknown)
(declare-fun l_0_0_25 () Real)
(declare-fun _a_0_ () Real)
(declare-fun l_0_0_26 () Real)
(declare-fun l_0_0_19 () Real)
(declare-fun l_0_0_13 () Real)
(declare-fun _a_1_ () Real)
(declare-fun l_0_0_30 () Real)
(declare-fun l_0_0_29 () Real)
(declare-fun l_0_0_28 () Real)
(declare-fun l_0_0_7 () Real)
(declare-fun l_0_0_10 () Real)
(declare-fun l_0_0_4 () Real)
(declare-fun l_0_0_1 () Real)
(declare-fun _a_2_ () Real)
(declare-fun l_0_0_8 () Real)
(declare-fun l_0_0_27 () Real)
(declare-fun l_0_0_22 () Real)
(declare-fun l_0_0_16 () Real)
(declare-fun l_0_0_2 () Real)
(declare-fun _a_3_ () Real)
(declare-fun _a_4_ () Real)
(declare-fun l_0_0_20 () Real)
(declare-fun l_0_0_14 () Real)
(declare-fun _a_5_ () Real)
(declare-fun l_0_0_9 () Real)
(declare-fun l_0_0_3 () Real)
(declare-fun l_0_0_23 () Real)
(declare-fun l_0_0_21 () Real)
(declare-fun l_0_0_17 () Real)
(declare-fun l_0_0_15 () Real)
(declare-fun l_0_0_5 () Real)
(declare-fun l_0_0_24 () Real)
(declare-fun l_0_0_18 () Real)
(declare-fun l_0_0_11 () Real)
(declare-fun l_0_0_6 () Real)
(declare-fun l_0_0_12 () Real)
(declare-fun l_0_1_7 () Real)
(declare-fun l_0_1_25 () Real)
(declare-fun l_0_1_1 () Real)
(declare-fun l_0_1_30 () Real)
(declare-fun l_0_1_29 () Real)
(declare-fun l_0_1_28 () Real)
(declare-fun l_0_1_13 () Real)
(declare-fun l_0_1_16 () Real)
(declare-fun l_0_1_12 () Real)
(declare-fun l_0_1_11 () Real)
(declare-fun l_0_1_10 () Real)
(declare-fun l_0_1_4 () Real)
(declare-fun l_0_1_6 () Real)
(declare-fun l_0_1_5 () Real)
(declare-fun l_0_1_8 () Real)
(declare-fun l_0_1_26 () Real)
(declare-fun l_0_1_19 () Real)
(declare-fun l_0_1_2 () Real)
(declare-fun l_0_1_9 () Real)
(declare-fun l_0_1_27 () Real)
(declare-fun l_0_1_20 () Real)
(declare-fun l_0_1_3 () Real)
(declare-fun l_0_1_22 () Real)
(declare-fun l_0_1_14 () Real)
(declare-fun l_0_1_21 () Real)
(declare-fun l_0_1_23 () Real)
(declare-fun l_0_1_15 () Real)
(declare-fun l_0_1_24 () Real)
(declare-fun l_0_1_17 () Real)
(declare-fun l_0_1_18 () Real)
(declare-fun l_0_2_7 () Real)
(declare-fun l_0_2_31 () Real)
(declare-fun l_0_2_25 () Real)
(declare-fun l_0_2_1 () Real)
(declare-fun l_0_2_8 () Real)
(declare-fun l_0_2_32 () Real)
(declare-fun l_0_2_26 () Real)
(declare-fun l_0_2_19 () Real)
(declare-fun l_0_2_2 () Real)
(declare-fun l_0_2_36 () Real)
(declare-fun l_0_2_35 () Real)
(declare-fun l_0_2_34 () Real)
(declare-fun l_0_2_30 () Real)
(declare-fun l_0_2_29 () Real)
(declare-fun l_0_2_28 () Real)
(declare-fun l_0_2_13 () Real)
(declare-fun l_0_2_16 () Real)
(declare-fun l_0_2_12 () Real)
(declare-fun l_0_2_11 () Real)
(declare-fun l_0_2_10 () Real)
(declare-fun l_0_2_4 () Real)
(declare-fun l_0_2_6 () Real)
(declare-fun l_0_2_5 () Real)
(declare-fun l_0_2_9 () Real)
(declare-fun l_0_2_33 () Real)
(declare-fun l_0_2_27 () Real)
(declare-fun l_0_2_20 () Real)
(declare-fun l_0_2_3 () Real)
(declare-fun l_0_2_22 () Real)
(declare-fun l_0_2_14 () Real)
(declare-fun l_0_2_21 () Real)
(declare-fun l_0_2_23 () Real)
(declare-fun l_0_2_15 () Real)
(declare-fun l_0_2_24 () Real)
(declare-fun l_0_2_17 () Real)
(declare-fun l_0_2_18 () Real)
(declare-fun l_0_3_7 () Real)
(declare-fun l_0_3_25 () Real)
(declare-fun l_0_3_1 () Real)
(declare-fun l_0_3_8 () Real)
(declare-fun l_0_3_26 () Real)
(declare-fun l_0_3_19 () Real)
(declare-fun l_0_3_2 () Real)
(declare-fun l_0_3_28 () Real)
(declare-fun l_0_3_13 () Real)
(declare-fun l_0_3_10 () Real)
(declare-fun l_0_3_4 () Real)
(declare-fun l_0_3_30 () Real)
(declare-fun l_0_3_29 () Real)
(declare-fun l_0_3_16 () Real)
(declare-fun l_0_3_12 () Real)
(declare-fun l_0_3_11 () Real)
(declare-fun l_0_3_6 () Real)
(declare-fun l_0_3_5 () Real)
(declare-fun l_0_3_27 () Real)
(declare-fun l_0_3_22 () Real)
(declare-fun l_0_3_14 () Real)
(declare-fun l_0_3_9 () Real)
(declare-fun l_0_3_3 () Real)
(declare-fun l_0_3_20 () Real)
(declare-fun l_0_3_21 () Real)
(declare-fun l_0_3_23 () Real)
(declare-fun l_0_3_15 () Real)
(declare-fun l_0_3_24 () Real)
(declare-fun l_0_3_17 () Real)
(declare-fun l_0_3_18 () Real)
(assert
 (= (- _a_0_ (* l_0_0_25 l_0_0_25)) 0.0))
(assert
 (let ((?x170 (- (- (+ _a_1_ (* l_0_0_13 l_0_0_13)) (* l_0_0_19 l_0_0_19)) (* (* 2.0 l_0_0_25) l_0_0_26))))
 (= ?x170 0.0)))
(assert
 (let ((?x193 (* l_0_0_30 l_0_0_30)))
 (let ((?x191 (* l_0_0_29 l_0_0_29)))
 (let ((?x189 (* l_0_0_28 l_0_0_28)))
 (let ((?x188 (- (+ _a_2_ (* (* 2.0 l_0_0_1) l_0_0_4)) (* (* 2.0 l_0_0_10) l_0_0_7))))
 (= (- (- (- ?x188 ?x189) ?x191) ?x193) 0.0))))))
(assert
 (let ((?x219 (+ (+ _a_3_ (* (* 2.0 l_0_0_1) l_0_0_2)) (* (* 2.0 l_0_0_13) l_0_0_16))))
 (let ((?x225 (- (- ?x219 (* (* 2.0 l_0_0_19) l_0_0_22)) (* (* 2.0 l_0_0_26) l_0_0_28))))
 (let ((?x231 (- (- ?x225 (* (* 2.0 l_0_0_27) l_0_0_29)) (* (* 2.0 l_0_0_7) l_0_0_8))))
 (= ?x231 0.0)))))
(assert
 (let ((?x267 (* l_0_0_7 l_0_0_7)))
 (let ((?x263 (* l_0_0_1 l_0_0_1)))
 (let ((?x264 (+ _a_4_ ?x263)))
 (= (- (- ?x264 (* (* 2.0 l_0_0_25) l_0_0_28)) ?x267) 0.0)))))
(assert
 (let ((?x286 (* l_0_0_27 l_0_0_27)))
 (let ((?x284 (* l_0_0_26 l_0_0_26)))
 (let ((?x283 (- (+ _a_5_ (* (* 2.0 l_0_0_13) l_0_0_14)) (* (* 2.0 l_0_0_19) l_0_0_20))))
 (= (- (- ?x283 ?x284) ?x286) 0.0)))))
(assert
 (let ((?x322 (* l_0_0_9 l_0_0_9)))
 (let ((?x320 (* l_0_0_8 l_0_0_8)))
 (let ((?x318 (* l_0_0_3 l_0_0_3)))
 (let ((?x310 (* l_0_0_2 l_0_0_2)))
 (let ((?x309 (+ (* (* 2.0 l_0_0_14) l_0_0_16) (* (* 2.0 l_0_0_15) l_0_0_17))))
 (let ((?x317 (- (- (+ ?x309 ?x310) (* (* 2.0 l_0_0_20) l_0_0_22)) (* (* 2.0 l_0_0_21) l_0_0_23))))
 (= (- (- (+ ?x317 ?x318) ?x320) ?x322) 0.0))))))))
(assert
 (let ((?x368 (* l_0_0_24 l_0_0_24)))
 (let ((?x366 (* l_0_0_23 l_0_0_23)))
 (let ((?x364 (* l_0_0_22 l_0_0_22)))
 (let ((?x359 (* l_0_0_18 l_0_0_18)))
 (let ((?x357 (* l_0_0_17 l_0_0_17)))
 (let ((?x355 (* l_0_0_16 l_0_0_16)))
 (let ((?x354 (- (* (* (- 2.0) l_0_0_10) l_0_0_8) (* (* 2.0 l_0_0_11) l_0_0_9))))
 (let ((?x363 (+ (+ (+ (+ ?x354 ?x355) ?x357) ?x359) (* (* 2.0 l_0_0_2) l_0_0_4))))
 (let ((?x372 (+ (- (- (- ?x363 ?x364) ?x366) ?x368) (* (* 2.0 l_0_0_3) l_0_0_5))))
 (= ?x372 0.0)))))))))))
(assert
 (let ((?x408 (* l_0_0_6 l_0_0_6)))
 (let ((?x406 (* l_0_0_5 l_0_0_5)))
 (let ((?x404 (* l_0_0_4 l_0_0_4)))
 (let ((?x402 (* l_0_0_12 l_0_0_12)))
 (let ((?x405 (+ (- (- (* (- l_0_0_10) l_0_0_10) (* l_0_0_11 l_0_0_11)) ?x402) ?x404)))
 (= (+ (+ ?x405 ?x406) ?x408) 0.0)))))))
(assert
 (let ((?x430 (* l_0_0_21 l_0_0_21)))
 (let ((?x428 (* l_0_0_20 l_0_0_20)))
 (let ((?x426 (* l_0_0_15 l_0_0_15)))
 (let ((?x420 (* l_0_0_14 l_0_0_14)))
 (let ((?x427 (+ ?x420 ?x426)))
 (= (- (- ?x427 ?x428) ?x430) 0.0)))))))
(assert
 (>= l_0_0_1 0.0))
(assert
 (>= l_0_0_3 0.0))
(assert
 (>= l_0_0_6 0.0))
(assert
 (>= l_0_0_7 0.0))
(assert
 (>= l_0_0_9 0.0))
(assert
 (>= l_0_0_12 0.0))
(assert
 (>= l_0_0_13 0.0))
(assert
 (>= l_0_0_15 0.0))
(assert
 (>= l_0_0_18 0.0))
(assert
 (>= l_0_0_19 0.0))
(assert
 (>= l_0_0_21 0.0))
(assert
 (>= l_0_0_24 0.0))
(assert
 (>= l_0_0_25 0.0))
(assert
 (>= l_0_0_27 0.0))
(assert
 (>= l_0_0_30 0.0))
(assert
 (let ((?x463 (+ (- (* (* (- _a_0_) l_0_1_1) l_0_1_1) (* l_0_1_25 l_0_1_25)) (* 5.0 (* l_0_1_7 l_0_1_7)))))
 (= ?x463 0.0)))
(assert
 (let ((?x510 (* l_0_1_30 l_0_1_30)))
 (let ((?x508 (* l_0_1_29 l_0_1_29)))
 (let ((?x506 (* l_0_1_28 l_0_1_28)))
 (let ((?x504 (* l_0_1_13 l_0_1_13)))
 (let ((?x497 (* l_0_1_12 l_0_1_12)))
 (let ((?x498 (* 5.0 ?x497)))
 (let ((?x494 (* l_0_1_11 l_0_1_11)))
 (let ((?x495 (* 5.0 ?x494)))
 (let ((?x491 (* l_0_1_10 l_0_1_10)))
 (let ((?x492 (* 5.0 ?x491)))
 (let ((?x478 (* l_0_1_6 l_0_1_6)))
 (let ((?x479 (+ (+ (* l_0_1_4 l_0_1_4) (* l_0_1_5 l_0_1_5)) ?x478)))
 (let ((?x455 (- _a_0_)))
 (let ((?x487 (- (- (* ?x455 ?x479) (* (* _a_2_ l_0_1_1) l_0_1_1)) (* (* (* 2.0 _a_4_) l_0_1_1) l_0_1_4))))
 (let ((?x499 (+ (+ (+ (- ?x487 (* (* 2.0 l_0_1_10) l_0_1_7)) ?x492) ?x495) ?x498)))
 (let ((?x509 (- (- (- (+ ?x499 (* (* 20.0 l_0_1_13) l_0_1_16)) ?x504) ?x506) ?x508)))
 (= (- (- ?x509 ?x510) (/ 5.0 2.0)) 0.0))))))))))))))))))
(assert
 (let ((?x460 (* l_0_1_7 l_0_1_7)))
 (let ((?x504 (* l_0_1_13 l_0_1_13)))
 (let ((?x568 (* 10.0 ?x504)))
 (let ((?x563 (- (* (* (* (- 2.0) _a_0_) l_0_1_1) l_0_1_4) (* (* _a_4_ l_0_1_1) l_0_1_1))))
 (let ((?x572 (- (+ (+ ?x563 (* (* 10.0 l_0_1_10) l_0_1_7)) ?x568) (* (* 2.0 l_0_1_25) l_0_1_28))))
 (= (- (- ?x572 ?x460) 4.0) 0.0)))))))
(assert
 (let ((?x608 (* l_0_1_19 l_0_1_19)))
 (let ((?x609 (* 10.0 ?x608)))
 (let ((?x607 (- (* (* (* (- 2.0) _a_0_) l_0_1_1) l_0_1_2) (* (* _a_1_ l_0_1_1) l_0_1_1))))
 (let ((?x615 (+ (- (+ ?x607 ?x609) (* (* 2.0 l_0_1_25) l_0_1_26)) (* (* 10.0 l_0_1_7) l_0_1_8))))
 (= (+ ?x615 1.0) 0.0))))))
(assert
 (let ((?x654 (* l_0_1_27 l_0_1_27)))
 (let ((?x652 (* l_0_1_26 l_0_1_26)))
 (let ((?x608 (* l_0_1_19 l_0_1_19)))
 (let ((?x644 (- (* (- _a_0_) (+ (* l_0_1_2 l_0_1_2) (* l_0_1_3 l_0_1_3))) (* (* (* 2.0 _a_1_) l_0_1_1) l_0_1_2))))
 (let ((?x650 (+ (- ?x644 (* (* _a_5_ l_0_1_1) l_0_1_1)) (* (* 20.0 l_0_1_19) l_0_1_20))))
 (let ((?x658 (+ (- (- (- ?x650 ?x608) ?x652) ?x654) (* 5.0 (* l_0_1_8 l_0_1_8)))))
 (= (+ ?x658 (* 5.0 (* l_0_1_9 l_0_1_9))) 0.0))))))))
(assert
 (let ((?x700 (+ (* (* 2.0 l_0_1_2) l_0_1_4) (* (* 2.0 l_0_1_3) l_0_1_5))))
 (let ((?x455 (- _a_0_)))
 (let ((?x706 (- (- (* ?x455 ?x700) (* (* (* 2.0 _a_1_) l_0_1_1) l_0_1_4)) (* (* _a_3_ l_0_1_1) l_0_1_1))))
 (let ((?x710 (+ (- ?x706 (* (* (* 2.0 _a_4_) l_0_1_1) l_0_1_2)) (* (* 10.0 l_0_1_10) l_0_1_8))))
 (let ((?x715 (+ (+ ?x710 (* (* 10.0 l_0_1_11) l_0_1_9)) (* (* 20.0 l_0_1_13) l_0_1_14))))
 (let ((?x720 (- (+ ?x715 (* (* 20.0 l_0_1_19) l_0_1_22)) (* (* 2.0 l_0_1_26) l_0_1_28))))
 (let ((?x726 (- (- ?x720 (* (* 2.0 l_0_1_27) l_0_1_29)) (* (* 2.0 l_0_1_7) l_0_1_8))))
 (= ?x726 0.0)))))))))
(assert
 (let ((?x792 (- (* (- _a_1_) (+ (* l_0_1_2 l_0_1_2) (* l_0_1_3 l_0_1_3))) (* (* (* 2.0 _a_5_) l_0_1_1) l_0_1_2))))
 (let ((?x798 (+ (- ?x792 (* (* 2.0 l_0_1_19) l_0_1_20)) (* 10.0 (* l_0_1_20 l_0_1_20)))))
 (= (+ ?x798 (* 10.0 (* l_0_1_21 l_0_1_21))) 0.0))))
(assert
 (let ((?x659 (* l_0_1_9 l_0_1_9)))
 (let ((?x656 (* l_0_1_8 l_0_1_8)))
 (let ((?x836 (* l_0_1_15 l_0_1_15)))
 (let ((?x837 (* 10.0 ?x836)))
 (let ((?x833 (* l_0_1_14 l_0_1_14)))
 (let ((?x834 (* 10.0 ?x833)))
 (let ((?x700 (+ (* (* 2.0 l_0_1_2) l_0_1_4) (* (* 2.0 l_0_1_3) l_0_1_5))))
 (let ((?x787 (- _a_1_)))
 (let ((?x830 (- (- (* ?x787 ?x700) (* (* (* 2.0 _a_3_) l_0_1_1) l_0_1_2)) (* _a_4_ (+ (* l_0_1_2 l_0_1_2) (* l_0_1_3 l_0_1_3))))))
 (let ((?x838 (+ (+ (- ?x830 (* (* (* 2.0 _a_5_) l_0_1_1) l_0_1_4)) ?x834) ?x837)))
 (let ((?x843 (+ (- ?x838 (* (* 2.0 l_0_1_19) l_0_1_22)) (* (* 20.0 l_0_1_20) l_0_1_22))))
 (= (- (- (+ ?x843 (* (* 20.0 l_0_1_21) l_0_1_23)) ?x656) ?x659) 0.0)))))))))))))
(assert
 (let ((?x700 (+ (* (* 2.0 l_0_1_2) l_0_1_4) (* (* 2.0 l_0_1_3) l_0_1_5))))
 (let ((?x478 (* l_0_1_6 l_0_1_6)))
 (let ((?x479 (+ (+ (* l_0_1_4 l_0_1_4) (* l_0_1_5 l_0_1_5)) ?x478)))
 (let ((?x787 (- _a_1_)))
 (let ((?x910 (- (- (* ?x787 ?x479) (* (* (* 2.0 _a_2_) l_0_1_1) l_0_1_2)) (* (* (* 2.0 _a_3_) l_0_1_1) l_0_1_4))))
 (let ((?x917 (- (- (- ?x910 (* _a_4_ ?x700)) (* (* 2.0 l_0_1_10) l_0_1_8)) (* (* 2.0 l_0_1_11) l_0_1_9))))
 (let ((?x923 (+ (- ?x917 (* (* 2.0 l_0_1_13) l_0_1_14)) (* (* 20.0 l_0_1_14) l_0_1_16))))
 (let ((?x929 (+ (+ ?x923 (* (* 20.0 l_0_1_15) l_0_1_17)) (* 10.0 (* l_0_1_22 l_0_1_22)))))
 (let ((?x935 (+ (+ ?x929 (* 10.0 (* l_0_1_23 l_0_1_23))) (* 10.0 (* l_0_1_24 l_0_1_24)))))
 (= ?x935 0.0)))))))))))
(assert
 (let ((?x497 (* l_0_1_12 l_0_1_12)))
 (let ((?x494 (* l_0_1_11 l_0_1_11)))
 (let ((?x491 (* l_0_1_10 l_0_1_10)))
 (let ((?x478 (* l_0_1_6 l_0_1_6)))
 (let ((?x479 (+ (+ (* l_0_1_4 l_0_1_4) (* l_0_1_5 l_0_1_5)) ?x478)))
 (let ((?x1004 (- (- (* (* (* (- 2.0) _a_2_) l_0_1_1) l_0_1_4) (* _a_4_ ?x479)) ?x491)))
 (let ((?x1011 (+ (- (- (- ?x1004 ?x494) ?x497) (* (* 2.0 l_0_1_13) l_0_1_16)) (* 10.0 (* l_0_1_16 l_0_1_16)))))
 (let ((?x1017 (+ (+ ?x1011 (* 10.0 (* l_0_1_17 l_0_1_17))) (* 10.0 (* l_0_1_18 l_0_1_18)))))
 (= ?x1017 0.0))))))))))
(assert
 (let ((?x933 (* l_0_1_24 l_0_1_24)))
 (let ((?x930 (* l_0_1_23 l_0_1_23)))
 (let ((?x927 (* l_0_1_22 l_0_1_22)))
 (let ((?x836 (* l_0_1_15 l_0_1_15)))
 (let ((?x833 (* l_0_1_14 l_0_1_14)))
 (let ((?x478 (* l_0_1_6 l_0_1_6)))
 (let ((?x479 (+ (+ (* l_0_1_4 l_0_1_4) (* l_0_1_5 l_0_1_5)) ?x478)))
 (let ((?x700 (+ (* (* 2.0 l_0_1_2) l_0_1_4) (* (* 2.0 l_0_1_3) l_0_1_5))))
 (let ((?x1059 (- (* (- _a_2_) (+ (* l_0_1_2 l_0_1_2) (* l_0_1_3 l_0_1_3))) (* _a_3_ ?x700))))
 (let ((?x1066 (- (- (- (- (- (- ?x1059 (* _a_5_ ?x479)) ?x833) ?x836) ?x927) ?x930) ?x933)))
 (= ?x1066 0.0))))))))))))
(assert
 (let ((?x478 (* l_0_1_6 l_0_1_6)))
 (let ((?x479 (+ (+ (* l_0_1_4 l_0_1_4) (* l_0_1_5 l_0_1_5)) ?x478)))
 (let ((?x700 (+ (* (* 2.0 l_0_1_2) l_0_1_4) (* (* 2.0 l_0_1_3) l_0_1_5))))
 (let ((?x1050 (- _a_2_)))
 (let ((?x1128 (- (- (* ?x1050 ?x700) (* _a_3_ ?x479)) (* (* 2.0 l_0_1_14) l_0_1_16))))
 (= (- ?x1128 (* (* 2.0 l_0_1_15) l_0_1_17)) 0.0)))))))
(assert
 (let ((?x1015 (* l_0_1_18 l_0_1_18)))
 (let ((?x1012 (* l_0_1_17 l_0_1_17)))
 (let ((?x1009 (* l_0_1_16 l_0_1_16)))
 (let ((?x478 (* l_0_1_6 l_0_1_6)))
 (let ((?x479 (+ (+ (* l_0_1_4 l_0_1_4) (* l_0_1_5 l_0_1_5)) ?x478)))
 (let ((?x1050 (- _a_2_)))
 (= (- (- (- (* ?x1050 ?x479) ?x1009) ?x1012) ?x1015) 0.0))))))))
(assert
 (let ((?x700 (+ (* (* 2.0 l_0_1_2) l_0_1_4) (* (* 2.0 l_0_1_3) l_0_1_5))))
 (let ((?x1191 (- (* (- _a_3_) (+ (* l_0_1_2 l_0_1_2) (* l_0_1_3 l_0_1_3))) (* _a_5_ ?x700))))
 (let ((?x1197 (- (- ?x1191 (* (* 2.0 l_0_1_20) l_0_1_22)) (* (* 2.0 l_0_1_21) l_0_1_23))))
 (= ?x1197 0.0)))))
(assert
 (let ((?x799 (* l_0_1_21 l_0_1_21)))
 (let ((?x796 (* l_0_1_20 l_0_1_20)))
 (let ((?x1236 (- (* (- _a_5_) (+ (* l_0_1_2 l_0_1_2) (* l_0_1_3 l_0_1_3))) ?x796)))
 (= (- ?x1236 ?x799) 0.0)))))
(assert
 (>= l_0_1_1 0.0))
(assert
 (>= l_0_1_3 0.0))
(assert
 (>= l_0_1_6 0.0))
(assert
 (>= l_0_1_7 0.0))
(assert
 (>= l_0_1_9 0.0))
(assert
 (>= l_0_1_12 0.0))
(assert
 (>= l_0_1_13 0.0))
(assert
 (>= l_0_1_15 0.0))
(assert
 (>= l_0_1_18 0.0))
(assert
 (>= l_0_1_19 0.0))
(assert
 (>= l_0_1_21 0.0))
(assert
 (>= l_0_1_24 0.0))
(assert
 (>= l_0_1_25 0.0))
(assert
 (>= l_0_1_27 0.0))
(assert
 (>= l_0_1_30 0.0))
(assert
 (let ((?x1272 (* l_0_2_31 l_0_2_31)))
 (let ((?x1273 (- (- (* (* (- _a_0_) l_0_2_1) l_0_2_1) (* l_0_2_25 l_0_2_25)) ?x1272)))
 (= (+ ?x1273 (* 5.0 (* l_0_2_7 l_0_2_7))) 0.0))))
(assert
 (let ((?x1294 (* l_0_2_19 l_0_2_19)))
 (let ((?x1295 (* 10.0 ?x1294)))
 (let ((?x1293 (- (* (* (* (- 2.0) _a_0_) l_0_2_1) l_0_2_2) (* (* _a_1_ l_0_2_1) l_0_2_1))))
 (let ((?x1302 (- (- (+ ?x1293 ?x1295) (* (* 2.0 l_0_2_25) l_0_2_26)) (* (* 2.0 l_0_2_31) l_0_2_32))))
 (= (- (+ ?x1302 (* (* 10.0 l_0_2_7) l_0_2_8)) 1.0) 0.0))))))
(assert
 (let ((?x1373 (* l_0_2_36 l_0_2_36)))
 (let ((?x1371 (* l_0_2_35 l_0_2_35)))
 (let ((?x1369 (* l_0_2_34 l_0_2_34)))
 (let ((?x1367 (* l_0_2_30 l_0_2_30)))
 (let ((?x1365 (* l_0_2_29 l_0_2_29)))
 (let ((?x1363 (* l_0_2_28 l_0_2_28)))
 (let ((?x1361 (* l_0_2_13 l_0_2_13)))
 (let ((?x1355 (* l_0_2_12 l_0_2_12)))
 (let ((?x1356 (* 5.0 ?x1355)))
 (let ((?x1352 (* l_0_2_11 l_0_2_11)))
 (let ((?x1353 (* 5.0 ?x1352)))
 (let ((?x1349 (* l_0_2_10 l_0_2_10)))
 (let ((?x1350 (* 5.0 ?x1349)))
 (let ((?x1337 (* l_0_2_6 l_0_2_6)))
 (let ((?x1338 (+ (+ (* l_0_2_4 l_0_2_4) (* l_0_2_5 l_0_2_5)) ?x1337)))
 (let ((?x455 (- _a_0_)))
 (let ((?x1345 (- (- (* ?x455 ?x1338) (* (* _a_2_ l_0_2_1) l_0_2_1)) (* (* (* 2.0 _a_4_) l_0_2_1) l_0_2_4))))
 (let ((?x1357 (+ (+ (+ (- ?x1345 (* (* 2.0 l_0_2_10) l_0_2_7)) ?x1350) ?x1353) ?x1356)))
 (let ((?x1366 (- (- (- (+ ?x1357 (* (* 20.0 l_0_2_13) l_0_2_16)) ?x1361) ?x1363) ?x1365)))
 (= (+ (- (- (- (- ?x1366 ?x1367) ?x1369) ?x1371) ?x1373) (/ 7.0 2.0)) 0.0)))))))))))))))))))))
(assert
 (let ((?x1274 (* l_0_2_7 l_0_2_7)))
 (let ((?x1361 (* l_0_2_13 l_0_2_13)))
 (let ((?x1434 (* 10.0 ?x1361)))
 (let ((?x1430 (- (* (* (* (- 2.0) _a_0_) l_0_2_1) l_0_2_4) (* (* _a_4_ l_0_2_1) l_0_2_1))))
 (let ((?x1437 (- (+ (+ ?x1430 (* (* 10.0 l_0_2_10) l_0_2_7)) ?x1434) (* (* 2.0 l_0_2_25) l_0_2_28))))
 (= (+ (- (- ?x1437 (* (* 2.0 l_0_2_31) l_0_2_34)) ?x1274) 3.0) 0.0)))))))
(assert
 (let ((?x1493 (* l_0_2_33 l_0_2_33)))
 (let ((?x1491 (* l_0_2_32 l_0_2_32)))
 (let ((?x1489 (* l_0_2_27 l_0_2_27)))
 (let ((?x1487 (* l_0_2_26 l_0_2_26)))
 (let ((?x1294 (* l_0_2_19 l_0_2_19)))
 (let ((?x1479 (- (* (- _a_0_) (+ (* l_0_2_2 l_0_2_2) (* l_0_2_3 l_0_2_3))) (* (* (* 2.0 _a_1_) l_0_2_1) l_0_2_2))))
 (let ((?x1485 (+ (- ?x1479 (* (* _a_5_ l_0_2_1) l_0_2_1)) (* (* 20.0 l_0_2_19) l_0_2_20))))
 (let ((?x1497 (+ (- (- (- (- (- ?x1485 ?x1294) ?x1487) ?x1489) ?x1491) ?x1493) (* 5.0 (* l_0_2_8 l_0_2_8)))))
 (= (+ ?x1497 (* 5.0 (* l_0_2_9 l_0_2_9))) 0.0))))))))))
(assert
 (let ((?x1544 (+ (* (* 2.0 l_0_2_2) l_0_2_4) (* (* 2.0 l_0_2_3) l_0_2_5))))
 (let ((?x455 (- _a_0_)))
 (let ((?x1550 (- (- (* ?x455 ?x1544) (* (* (* 2.0 _a_1_) l_0_2_1) l_0_2_4)) (* (* _a_3_ l_0_2_1) l_0_2_1))))
 (let ((?x1554 (+ (- ?x1550 (* (* (* 2.0 _a_4_) l_0_2_1) l_0_2_2)) (* (* 10.0 l_0_2_10) l_0_2_8))))
 (let ((?x1559 (+ (+ ?x1554 (* (* 10.0 l_0_2_11) l_0_2_9)) (* (* 20.0 l_0_2_13) l_0_2_14))))
 (let ((?x1564 (- (+ ?x1559 (* (* 20.0 l_0_2_19) l_0_2_22)) (* (* 2.0 l_0_2_26) l_0_2_28))))
 (let ((?x1570 (- (- ?x1564 (* (* 2.0 l_0_2_27) l_0_2_29)) (* (* 2.0 l_0_2_32) l_0_2_34))))
 (let ((?x1576 (- (- ?x1570 (* (* 2.0 l_0_2_33) l_0_2_35)) (* (* 2.0 l_0_2_7) l_0_2_8))))
 (= ?x1576 0.0))))))))))
(assert
 (let ((?x1652 (- (* (- _a_1_) (+ (* l_0_2_2 l_0_2_2) (* l_0_2_3 l_0_2_3))) (* (* (* 2.0 _a_5_) l_0_2_1) l_0_2_2))))
 (let ((?x1658 (+ (- ?x1652 (* (* 2.0 l_0_2_19) l_0_2_20)) (* 10.0 (* l_0_2_20 l_0_2_20)))))
 (= (+ ?x1658 (* 10.0 (* l_0_2_21 l_0_2_21))) 0.0))))
(assert
 (let ((?x1498 (* l_0_2_9 l_0_2_9)))
 (let ((?x1495 (* l_0_2_8 l_0_2_8)))
 (let ((?x1694 (* l_0_2_15 l_0_2_15)))
 (let ((?x1695 (* 10.0 ?x1694)))
 (let ((?x1691 (* l_0_2_14 l_0_2_14)))
 (let ((?x1692 (* 10.0 ?x1691)))
 (let ((?x1544 (+ (* (* 2.0 l_0_2_2) l_0_2_4) (* (* 2.0 l_0_2_3) l_0_2_5))))
 (let ((?x787 (- _a_1_)))
 (let ((?x1688 (- (- (* ?x787 ?x1544) (* (* (* 2.0 _a_3_) l_0_2_1) l_0_2_2)) (* _a_4_ (+ (* l_0_2_2 l_0_2_2) (* l_0_2_3 l_0_2_3))))))
 (let ((?x1696 (+ (+ (- ?x1688 (* (* (* 2.0 _a_5_) l_0_2_1) l_0_2_4)) ?x1692) ?x1695)))
 (let ((?x1701 (+ (- ?x1696 (* (* 2.0 l_0_2_19) l_0_2_22)) (* (* 20.0 l_0_2_20) l_0_2_22))))
 (= (- (- (+ ?x1701 (* (* 20.0 l_0_2_21) l_0_2_23)) ?x1495) ?x1498) 0.0)))))))))))))
(assert
 (let ((?x1544 (+ (* (* 2.0 l_0_2_2) l_0_2_4) (* (* 2.0 l_0_2_3) l_0_2_5))))
 (let ((?x1337 (* l_0_2_6 l_0_2_6)))
 (let ((?x1338 (+ (+ (* l_0_2_4 l_0_2_4) (* l_0_2_5 l_0_2_5)) ?x1337)))
 (let ((?x787 (- _a_1_)))
 (let ((?x1767 (- (- (* ?x787 ?x1338) (* (* (* 2.0 _a_2_) l_0_2_1) l_0_2_2)) (* (* (* 2.0 _a_3_) l_0_2_1) l_0_2_4))))
 (let ((?x1774 (- (- (- ?x1767 (* _a_4_ ?x1544)) (* (* 2.0 l_0_2_10) l_0_2_8)) (* (* 2.0 l_0_2_11) l_0_2_9))))
 (let ((?x1780 (+ (- ?x1774 (* (* 2.0 l_0_2_13) l_0_2_14)) (* (* 20.0 l_0_2_14) l_0_2_16))))
 (let ((?x1786 (+ (+ ?x1780 (* (* 20.0 l_0_2_15) l_0_2_17)) (* 10.0 (* l_0_2_22 l_0_2_22)))))
 (let ((?x1792 (+ (+ ?x1786 (* 10.0 (* l_0_2_23 l_0_2_23))) (* 10.0 (* l_0_2_24 l_0_2_24)))))
 (= ?x1792 0.0)))))))))))
(assert
 (let ((?x1355 (* l_0_2_12 l_0_2_12)))
 (let ((?x1352 (* l_0_2_11 l_0_2_11)))
 (let ((?x1349 (* l_0_2_10 l_0_2_10)))
 (let ((?x1337 (* l_0_2_6 l_0_2_6)))
 (let ((?x1338 (+ (+ (* l_0_2_4 l_0_2_4) (* l_0_2_5 l_0_2_5)) ?x1337)))
 (let ((?x1860 (- (- (* (* (* (- 2.0) _a_2_) l_0_2_1) l_0_2_4) (* _a_4_ ?x1338)) ?x1349)))
 (let ((?x1867 (+ (- (- (- ?x1860 ?x1352) ?x1355) (* (* 2.0 l_0_2_13) l_0_2_16)) (* 10.0 (* l_0_2_16 l_0_2_16)))))
 (let ((?x1873 (+ (+ ?x1867 (* 10.0 (* l_0_2_17 l_0_2_17))) (* 10.0 (* l_0_2_18 l_0_2_18)))))
 (= ?x1873 0.0))))))))))
(assert
 (let ((?x1790 (* l_0_2_24 l_0_2_24)))
 (let ((?x1787 (* l_0_2_23 l_0_2_23)))
 (let ((?x1784 (* l_0_2_22 l_0_2_22)))
 (let ((?x1694 (* l_0_2_15 l_0_2_15)))
 (let ((?x1691 (* l_0_2_14 l_0_2_14)))
 (let ((?x1337 (* l_0_2_6 l_0_2_6)))
 (let ((?x1338 (+ (+ (* l_0_2_4 l_0_2_4) (* l_0_2_5 l_0_2_5)) ?x1337)))
 (let ((?x1544 (+ (* (* 2.0 l_0_2_2) l_0_2_4) (* (* 2.0 l_0_2_3) l_0_2_5))))
 (let ((?x1914 (- (* (- _a_2_) (+ (* l_0_2_2 l_0_2_2) (* l_0_2_3 l_0_2_3))) (* _a_3_ ?x1544))))
 (let ((?x1921 (- (- (- (- (- (- ?x1914 (* _a_5_ ?x1338)) ?x1691) ?x1694) ?x1784) ?x1787) ?x1790)))
 (= ?x1921 0.0))))))))))))
(assert
 (let ((?x1337 (* l_0_2_6 l_0_2_6)))
 (let ((?x1338 (+ (+ (* l_0_2_4 l_0_2_4) (* l_0_2_5 l_0_2_5)) ?x1337)))
 (let ((?x1544 (+ (* (* 2.0 l_0_2_2) l_0_2_4) (* (* 2.0 l_0_2_3) l_0_2_5))))
 (let ((?x1050 (- _a_2_)))
 (let ((?x1982 (- (- (* ?x1050 ?x1544) (* _a_3_ ?x1338)) (* (* 2.0 l_0_2_14) l_0_2_16))))
 (= (- ?x1982 (* (* 2.0 l_0_2_15) l_0_2_17)) 0.0)))))))
(assert
 (let ((?x1871 (* l_0_2_18 l_0_2_18)))
 (let ((?x1868 (* l_0_2_17 l_0_2_17)))
 (let ((?x1865 (* l_0_2_16 l_0_2_16)))
 (let ((?x1337 (* l_0_2_6 l_0_2_6)))
 (let ((?x1338 (+ (+ (* l_0_2_4 l_0_2_4) (* l_0_2_5 l_0_2_5)) ?x1337)))
 (let ((?x1050 (- _a_2_)))
 (= (- (- (- (* ?x1050 ?x1338) ?x1865) ?x1868) ?x1871) 0.0))))))))
(assert
 (let ((?x1544 (+ (* (* 2.0 l_0_2_2) l_0_2_4) (* (* 2.0 l_0_2_3) l_0_2_5))))
 (let ((?x2044 (- (* (- _a_3_) (+ (* l_0_2_2 l_0_2_2) (* l_0_2_3 l_0_2_3))) (* _a_5_ ?x1544))))
 (let ((?x2050 (- (- ?x2044 (* (* 2.0 l_0_2_20) l_0_2_22)) (* (* 2.0 l_0_2_21) l_0_2_23))))
 (= ?x2050 0.0)))))
(assert
 (let ((?x1659 (* l_0_2_21 l_0_2_21)))
 (let ((?x1656 (* l_0_2_20 l_0_2_20)))
 (let ((?x2087 (- (* (- _a_5_) (+ (* l_0_2_2 l_0_2_2) (* l_0_2_3 l_0_2_3))) ?x1656)))
 (= (- ?x2087 ?x1659) 0.0)))))
(assert
 (>= l_0_2_1 0.0))
(assert
 (>= l_0_2_3 0.0))
(assert
 (>= l_0_2_6 0.0))
(assert
 (>= l_0_2_7 0.0))
(assert
 (>= l_0_2_9 0.0))
(assert
 (>= l_0_2_12 0.0))
(assert
 (>= l_0_2_13 0.0))
(assert
 (>= l_0_2_15 0.0))
(assert
 (>= l_0_2_18 0.0))
(assert
 (>= l_0_2_19 0.0))
(assert
 (>= l_0_2_21 0.0))
(assert
 (>= l_0_2_24 0.0))
(assert
 (>= l_0_2_25 0.0))
(assert
 (>= l_0_2_27 0.0))
(assert
 (>= l_0_2_30 0.0))
(assert
 (>= l_0_2_31 0.0))
(assert
 (>= l_0_2_33 0.0))
(assert
 (>= l_0_2_36 0.0))
(assert
 (let ((?x2136 (* l_0_3_25 l_0_3_25)))
 (let ((?x2134 (* (/ 121.0 4.0) _a_5_)))
 (let ((?x2129 (* (/ 11.0 2.0) _a_3_)))
 (let ((?x2125 (* (/ 11.0 2.0) _a_1_)))
 (let ((?x2128 (+ (+ (+ (* (* (- _a_0_) l_0_3_1) l_0_3_1) _a_0_) ?x2125) (* 1.0 _a_2_))))
 (let ((?x2140 (- (- (+ (+ (+ ?x2128 ?x2129) (* 1.0 _a_4_)) ?x2134) ?x2136) (* (* 5.0 l_0_3_7) l_0_3_7))))
 (= ?x2140 0.0))))))))
(assert
 (let ((?x2164 (* 11.0 _a_5_)))
 (let ((?x2159 (- (* (* (* (- 2.0) _a_0_) l_0_3_1) l_0_3_2) (* (* _a_1_ l_0_3_1) l_0_3_1))))
 (let ((?x2168 (- (+ (+ (+ ?x2159 _a_1_) (* 1.0 _a_3_)) ?x2164) (* (* 10.0 l_0_3_19) l_0_3_19))))
 (let ((?x2174 (- (- ?x2168 (* (* 2.0 l_0_3_25) l_0_3_26)) (* (* 10.0 l_0_3_7) l_0_3_8))))
 (= ?x2174 0.0))))))
(assert
 (let ((?x2148 (* l_0_3_7 l_0_3_7)))
 (let ((?x2212 (* (/ 121.0 2.0) _a_5_)))
 (let ((?x2205 (* 11.0 _a_3_)))
 (let ((?x905 (* 2.0 _a_2_)))
 (let ((?x2204 (+ (+ (* (* (* (- 2.0) _a_0_) l_0_3_1) l_0_3_4) (* (/ 11.0 2.0) _a_1_)) ?x905)))
 (let ((?x2213 (+ (+ (- (+ ?x2204 ?x2205) (* (* _a_4_ l_0_3_1) l_0_3_1)) _a_4_) ?x2212)))
 (let ((?x2219 (- (- ?x2213 (* (* 10.0 l_0_3_10) l_0_3_7)) (* (* 10.0 l_0_3_13) l_0_3_13))))
 (= (+ (- ?x2219 (* (* 2.0 l_0_3_25) l_0_3_28)) ?x2148) 0.0)))))))))
(assert
 (let ((?x2289 (* l_0_3_30 l_0_3_30)))
 (let ((?x2287 (* l_0_3_29 l_0_3_29)))
 (let ((?x2285 (* l_0_3_28 l_0_3_28)))
 (let ((?x2240 (* l_0_3_13 l_0_3_13)))
 (let ((?x2134 (* (/ 121.0 4.0) _a_5_)))
 (let ((?x2129 (* (/ 11.0 2.0) _a_3_)))
 (let ((?x2257 (* l_0_3_6 l_0_3_6)))
 (let ((?x2258 (+ (+ (* l_0_3_4 l_0_3_4) (* l_0_3_5 l_0_3_5)) ?x2257)))
 (let ((?x455 (- _a_0_)))
 (let ((?x2264 (+ (+ (- (* ?x455 ?x2258) (* (* _a_2_ l_0_3_1) l_0_3_1)) _a_2_) ?x2129)))
 (let ((?x2271 (+ (+ (- ?x2264 (* (* (* 2.0 _a_4_) l_0_3_1) l_0_3_4)) ?x2134) (* (* 2.0 l_0_3_10) l_0_3_7))))
 (let ((?x2277 (- (- ?x2271 (* (* 5.0 l_0_3_10) l_0_3_10)) (* (* 5.0 l_0_3_11) l_0_3_11))))
 (let ((?x2283 (- (- ?x2277 (* (* 5.0 l_0_3_12) l_0_3_12)) (* (* 20.0 l_0_3_13) l_0_3_16))))
 (= (- (- (- (+ ?x2283 ?x2240) ?x2285) ?x2287) ?x2289) 0.0)))))))))))))))
(assert
 (let ((?x2164 (* 11.0 _a_5_)))
 (let ((?x2351 (+ (* (* 2.0 l_0_3_2) l_0_3_4) (* (* 2.0 l_0_3_3) l_0_3_5))))
 (let ((?x455 (- _a_0_)))
 (let ((?x2358 (- (- (* ?x455 ?x2351) (* (* (* 2.0 _a_1_) l_0_3_1) l_0_3_4)) (* (* _a_3_ l_0_3_1) l_0_3_1))))
 (let ((?x2362 (+ (- (+ ?x2358 _a_3_) (* (* (* 2.0 _a_4_) l_0_3_1) l_0_3_2)) ?x2164)))
 (let ((?x2367 (- (- ?x2362 (* (* 10.0 l_0_3_10) l_0_3_8)) (* (* 10.0 l_0_3_11) l_0_3_9))))
 (let ((?x2372 (- (- ?x2367 (* (* 20.0 l_0_3_13) l_0_3_14)) (* (* 20.0 l_0_3_19) l_0_3_22))))
 (let ((?x2378 (- (- ?x2372 (* (* 2.0 l_0_3_26) l_0_3_28)) (* (* 2.0 l_0_3_27) l_0_3_29))))
 (= (+ ?x2378 (* (* 2.0 l_0_3_7) l_0_3_8)) 0.0))))))))))
(assert
 (let ((?x2465 (* l_0_3_27 l_0_3_27)))
 (let ((?x2463 (* l_0_3_26 l_0_3_26)))
 (let ((?x2183 (* l_0_3_19 l_0_3_19)))
 (let ((?x2455 (- (* (- _a_0_) (+ (* l_0_3_2 l_0_3_2) (* l_0_3_3 l_0_3_3))) (* (* (* 2.0 _a_1_) l_0_3_1) l_0_3_2))))
 (let ((?x2461 (- (+ (- ?x2455 (* (* _a_5_ l_0_3_1) l_0_3_1)) _a_5_) (* (* 20.0 l_0_3_19) l_0_3_20))))
 (let ((?x2469 (- (- (- (+ ?x2461 ?x2183) ?x2463) ?x2465) (* (* 5.0 l_0_3_8) l_0_3_8))))
 (= (- ?x2469 (* (* 5.0 l_0_3_9) l_0_3_9)) 0.0))))))))
(assert
 (let ((?x2520 (- (* (- _a_1_) (+ (* l_0_3_2 l_0_3_2) (* l_0_3_3 l_0_3_3))) (* (* (* 2.0 _a_5_) l_0_3_1) l_0_3_2))))
 (let ((?x2526 (- (+ ?x2520 (* (* 2.0 l_0_3_19) l_0_3_20)) (* (* 10.0 l_0_3_20) l_0_3_20))))
 (= (- ?x2526 (* (* 10.0 l_0_3_21) l_0_3_21)) 0.0))))
(assert
 (let ((?x2510 (* l_0_3_9 l_0_3_9)))
 (let ((?x2504 (* l_0_3_8 l_0_3_8)))
 (let ((?x2351 (+ (* (* 2.0 l_0_3_2) l_0_3_4) (* (* 2.0 l_0_3_3) l_0_3_5))))
 (let ((?x787 (- _a_1_)))
 (let ((?x2562 (- (- (* ?x787 ?x2351) (* (* (* 2.0 _a_3_) l_0_3_1) l_0_3_2)) (* _a_4_ (+ (* l_0_3_2 l_0_3_2) (* l_0_3_3 l_0_3_3))))))
 (let ((?x2567 (- (- ?x2562 (* (* (* 2.0 _a_5_) l_0_3_1) l_0_3_4)) (* (* 10.0 l_0_3_14) l_0_3_14))))
 (let ((?x2572 (+ (- ?x2567 (* (* 10.0 l_0_3_15) l_0_3_15)) (* (* 2.0 l_0_3_19) l_0_3_22))))
 (let ((?x2578 (- (- ?x2572 (* (* 20.0 l_0_3_20) l_0_3_22)) (* (* 20.0 l_0_3_21) l_0_3_23))))
 (= (+ (+ ?x2578 ?x2504) ?x2510) 0.0))))))))))
(assert
 (let ((?x2351 (+ (* (* 2.0 l_0_3_2) l_0_3_4) (* (* 2.0 l_0_3_3) l_0_3_5))))
 (let ((?x2257 (* l_0_3_6 l_0_3_6)))
 (let ((?x2258 (+ (+ (* l_0_3_4 l_0_3_4) (* l_0_3_5 l_0_3_5)) ?x2257)))
 (let ((?x787 (- _a_1_)))
 (let ((?x2646 (- (- (* ?x787 ?x2258) (* (* (* 2.0 _a_2_) l_0_3_1) l_0_3_2)) (* (* (* 2.0 _a_3_) l_0_3_1) l_0_3_4))))
 (let ((?x2653 (+ (+ (- ?x2646 (* _a_4_ ?x2351)) (* (* 2.0 l_0_3_10) l_0_3_8)) (* (* 2.0 l_0_3_11) l_0_3_9))))
 (let ((?x2659 (- (+ ?x2653 (* (* 2.0 l_0_3_13) l_0_3_14)) (* (* 20.0 l_0_3_14) l_0_3_16))))
 (let ((?x2665 (- (- ?x2659 (* (* 20.0 l_0_3_15) l_0_3_17)) (* (* 10.0 l_0_3_22) l_0_3_22))))
 (let ((?x2671 (- (- ?x2665 (* (* 10.0 l_0_3_23) l_0_3_23)) (* (* 10.0 l_0_3_24) l_0_3_24))))
 (= ?x2671 0.0)))))))))))
(assert
 (let ((?x2324 (* l_0_3_12 l_0_3_12)))
 (let ((?x2318 (* l_0_3_11 l_0_3_11)))
 (let ((?x2312 (* l_0_3_10 l_0_3_10)))
 (let ((?x2257 (* l_0_3_6 l_0_3_6)))
 (let ((?x2258 (+ (+ (* l_0_3_4 l_0_3_4) (* l_0_3_5 l_0_3_5)) ?x2257)))
 (let ((?x2750 (+ (- (* (* (* (- 2.0) _a_2_) l_0_3_1) l_0_3_4) (* _a_4_ ?x2258)) ?x2312)))
 (let ((?x2757 (- (+ (+ (+ ?x2750 ?x2318) ?x2324) (* (* 2.0 l_0_3_13) l_0_3_16)) (* (* 10.0 l_0_3_16) l_0_3_16))))
 (let ((?x2763 (- (- ?x2757 (* (* 10.0 l_0_3_17) l_0_3_17)) (* (* 10.0 l_0_3_18) l_0_3_18))))
 (= ?x2763 0.0))))))))))
(assert
 (let ((?x2739 (* l_0_3_24 l_0_3_24)))
 (let ((?x2733 (* l_0_3_23 l_0_3_23)))
 (let ((?x2727 (* l_0_3_22 l_0_3_22)))
 (let ((?x2619 (* l_0_3_15 l_0_3_15)))
 (let ((?x2613 (* l_0_3_14 l_0_3_14)))
 (let ((?x2257 (* l_0_3_6 l_0_3_6)))
 (let ((?x2258 (+ (+ (* l_0_3_4 l_0_3_4) (* l_0_3_5 l_0_3_5)) ?x2257)))
 (let ((?x2351 (+ (* (* 2.0 l_0_3_2) l_0_3_4) (* (* 2.0 l_0_3_3) l_0_3_5))))
 (let ((?x2805 (- (* (- _a_2_) (+ (* l_0_3_2 l_0_3_2) (* l_0_3_3 l_0_3_3))) (* _a_3_ ?x2351))))
 (let ((?x2812 (+ (+ (+ (+ (+ (- ?x2805 (* _a_5_ ?x2258)) ?x2613) ?x2619) ?x2727) ?x2733) ?x2739)))
 (= ?x2812 0.0))))))))))))
(assert
 (let ((?x2257 (* l_0_3_6 l_0_3_6)))
 (let ((?x2258 (+ (+ (* l_0_3_4 l_0_3_4) (* l_0_3_5 l_0_3_5)) ?x2257)))
 (let ((?x2351 (+ (* (* 2.0 l_0_3_2) l_0_3_4) (* (* 2.0 l_0_3_3) l_0_3_5))))
 (let ((?x1050 (- _a_2_)))
 (let ((?x2858 (+ (- (* ?x1050 ?x2351) (* _a_3_ ?x2258)) (* (* 2.0 l_0_3_14) l_0_3_16))))
 (= (+ ?x2858 (* (* 2.0 l_0_3_15) l_0_3_17)) 0.0)))))))
(assert
 (let ((?x2796 (* l_0_3_18 l_0_3_18)))
 (let ((?x2790 (* l_0_3_17 l_0_3_17)))
 (let ((?x2784 (* l_0_3_16 l_0_3_16)))
 (let ((?x2257 (* l_0_3_6 l_0_3_6)))
 (let ((?x2258 (+ (+ (* l_0_3_4 l_0_3_4) (* l_0_3_5 l_0_3_5)) ?x2257)))
 (let ((?x1050 (- _a_2_)))
 (= (+ (+ (+ (* ?x1050 ?x2258) ?x2784) ?x2790) ?x2796) 0.0))))))))
(assert
 (let ((?x2351 (+ (* (* 2.0 l_0_3_2) l_0_3_4) (* (* 2.0 l_0_3_3) l_0_3_5))))
 (let ((?x2903 (- (* (- _a_3_) (+ (* l_0_3_2 l_0_3_2) (* l_0_3_3 l_0_3_3))) (* _a_5_ ?x2351))))
 (let ((?x2909 (+ (+ ?x2903 (* (* 2.0 l_0_3_20) l_0_3_22)) (* (* 2.0 l_0_3_21) l_0_3_23))))
 (= ?x2909 0.0)))))
(assert
 (let ((?x2550 (* l_0_3_21 l_0_3_21)))
 (let ((?x2544 (* l_0_3_20 l_0_3_20)))
 (let ((?x2938 (+ (* (- _a_5_) (+ (* l_0_3_2 l_0_3_2) (* l_0_3_3 l_0_3_3))) ?x2544)))
 (= (+ ?x2938 ?x2550) 0.0)))))
(assert
 (>= l_0_3_1 0.0))
(assert
 (>= l_0_3_3 0.0))
(assert
 (>= l_0_3_6 0.0))
(assert
 (>= l_0_3_7 0.0))
(assert
 (>= l_0_3_9 0.0))
(assert
 (>= l_0_3_12 0.0))
(assert
 (>= l_0_3_13 0.0))
(assert
 (>= l_0_3_15 0.0))
(assert
 (>= l_0_3_18 0.0))
(assert
 (>= l_0_3_19 0.0))
(assert
 (>= l_0_3_21 0.0))
(assert
 (>= l_0_3_24 0.0))
(assert
 (>= l_0_3_25 0.0))
(assert
 (>= l_0_3_27 0.0))
(assert
 (>= l_0_3_30 0.0))
(check-sat)
(get-model)